letting n =  10
letting blocks =  [[1, 3], [1, 8], [1, 9], [2, 1], [2, 5], [2, 6], [2, 8], [3, 1], [3, 2], [3, 3], [3, 4], [3, 6], [3, 8], [4, 1], [4, 2], [4, 3], [4, 4], [4, 7], [4, 10], [5, 3], [5, 4], [5, 5], [5, 7], [5, 8], [5, 10], [6, 4], [6, 6], [6, 7], [6, 9], [6, 10], [7, 3], [7, 4], [7, 5], [7, 6], [7, 8], [7, 10], [8, 1], [8, 2], [8, 3], [8, 7], [8, 9], [9, 1], [9, 5], [9, 6], [9, 7], [9, 9], [10, 1], [10, 2], [10, 4], [10, 7], [10, 8], [10, 10]]
